c nIsolatedPIs 0
c maxPI 20
p cnf 499 1438
c gate 21 3 20 0
3 -21 0
20 -21 0
-3 -20 21 0
c gate 22 7 12 0
7 -22 0
12 -22 0
-7 -12 22 0
c gate 23 8 11 0
8 -23 0
11 -23 0
-8 -11 23 0
c gate 24 22 23 0
22 -24 0
23 -24 0
-22 -23 24 0
c gate 25 6 13 0
6 -25 0
13 -25 0
-6 -13 25 0
c gate 26 -22 -23 0
-22 -26 0
-23 -26 0
22 23 26 0
c gate 27 -24 -26 0
-24 -27 0
-26 -27 0
24 26 27 0
c gate 28 25 27 0
25 -28 0
27 -28 0
-25 -27 28 0
c gate 29 -24 -28 0
-24 -29 0
-28 -29 0
24 28 29 0
c gate 30 7 13 0
7 -30 0
13 -30 0
-7 -13 30 0
c gate 31 8 12 0
8 -31 0
12 -31 0
-8 -12 31 0
c gate 32 9 11 0
9 -32 0
11 -32 0
-9 -11 32 0
c gate 33 -31 -32 0
-31 -33 0
-32 -33 0
31 32 33 0
c gate 34 31 32 0
31 -34 0
32 -34 0
-31 -32 34 0
c gate 35 -33 -34 0
-33 -35 0
-34 -35 0
33 34 35 0
c gate 36 30 35 0
30 -36 0
35 -36 0
-30 -35 36 0
c gate 37 -30 -35 0
-30 -37 0
-35 -37 0
30 35 37 0
c gate 38 -36 -37 0
-36 -38 0
-37 -38 0
36 37 38 0
c gate 39 -29 38 0
-29 -39 0
38 -39 0
29 -38 39 0
c gate 40 4 16 0
4 -40 0
16 -40 0
-4 -16 40 0
c gate 41 5 15 0
5 -41 0
15 -41 0
-5 -15 41 0
c gate 42 6 14 0
6 -42 0
14 -42 0
-6 -14 42 0
c gate 43 -41 -42 0
-41 -43 0
-42 -43 0
41 42 43 0
c gate 44 41 42 0
41 -44 0
42 -44 0
-41 -42 44 0
c gate 45 -43 -44 0
-43 -45 0
-44 -45 0
43 44 45 0
c gate 46 40 45 0
40 -46 0
45 -46 0
-40 -45 46 0
c gate 47 -40 -45 0
-40 -47 0
-45 -47 0
40 45 47 0
c gate 48 -46 -47 0
-46 -48 0
-47 -48 0
46 47 48 0
c gate 49 29 -38 0
29 -49 0
-38 -49 0
-29 38 49 0
c gate 50 -39 -49 0
-39 -50 0
-49 -50 0
39 49 50 0
c gate 51 48 50 0
48 -51 0
50 -51 0
-48 -50 51 0
c gate 52 -39 -51 0
-39 -52 0
-51 -52 0
39 51 52 0
c gate 53 5 16 0
5 -53 0
16 -53 0
-5 -16 53 0
c gate 54 6 15 0
6 -54 0
15 -54 0
-6 -15 54 0
c gate 55 7 14 0
7 -55 0
14 -55 0
-7 -14 55 0
c gate 56 -54 -55 0
-54 -56 0
-55 -56 0
54 55 56 0
c gate 57 54 55 0
54 -57 0
55 -57 0
-54 -55 57 0
c gate 58 -56 -57 0
-56 -58 0
-57 -58 0
56 57 58 0
c gate 59 53 58 0
53 -59 0
58 -59 0
-53 -58 59 0
c gate 60 -53 -58 0
-53 -60 0
-58 -60 0
53 58 60 0
c gate 61 -59 -60 0
-59 -61 0
-60 -61 0
59 60 61 0
c gate 62 -34 -36 0
-34 -62 0
-36 -62 0
34 36 62 0
c gate 63 8 13 0
8 -63 0
13 -63 0
-8 -13 63 0
c gate 64 9 12 0
9 -64 0
12 -64 0
-9 -12 64 0
c gate 65 10 11 0
10 -65 0
11 -65 0
-10 -11 65 0
c gate 66 -64 -65 0
-64 -66 0
-65 -66 0
64 65 66 0
c gate 67 64 65 0
64 -67 0
65 -67 0
-64 -65 67 0
c gate 68 -66 -67 0
-66 -68 0
-67 -68 0
66 67 68 0
c gate 69 63 68 0
63 -69 0
68 -69 0
-63 -68 69 0
c gate 70 -63 -68 0
-63 -70 0
-68 -70 0
63 68 70 0
c gate 71 -69 -70 0
-69 -71 0
-70 -71 0
69 70 71 0
c gate 72 -62 71 0
-62 -72 0
71 -72 0
62 -71 72 0
c gate 73 62 -71 0
62 -73 0
-71 -73 0
-62 71 73 0
c gate 74 -72 -73 0
-72 -74 0
-73 -74 0
72 73 74 0
c gate 75 61 74 0
61 -75 0
74 -75 0
-61 -74 75 0
c gate 76 -61 -74 0
-61 -76 0
-74 -76 0
61 74 76 0
c gate 77 -75 -76 0
-75 -77 0
-76 -77 0
75 76 77 0
c gate 78 -52 77 0
-52 -78 0
77 -78 0
52 -77 78 0
c gate 79 2 18 0
2 -79 0
18 -79 0
-2 -18 79 0
c gate 80 3 17 0
3 -80 0
17 -80 0
-3 -17 80 0
c gate 81 79 80 0
79 -81 0
80 -81 0
-79 -80 81 0
c gate 82 1 19 0
1 -82 0
19 -82 0
-1 -19 82 0
c gate 83 -79 -80 0
-79 -83 0
-80 -83 0
79 80 83 0
c gate 84 -81 -83 0
-81 -84 0
-83 -84 0
81 83 84 0
c gate 85 82 84 0
82 -85 0
84 -85 0
-82 -84 85 0
c gate 86 -81 -85 0
-81 -86 0
-85 -86 0
81 85 86 0
c gate 87 2 19 0
2 -87 0
19 -87 0
-2 -19 87 0
c gate 88 3 18 0
3 -88 0
18 -88 0
-3 -18 88 0
c gate 89 4 17 0
4 -89 0
17 -89 0
-4 -17 89 0
c gate 90 -88 -89 0
-88 -90 0
-89 -90 0
88 89 90 0
c gate 91 88 89 0
88 -91 0
89 -91 0
-88 -89 91 0
c gate 92 -90 -91 0
-90 -92 0
-91 -92 0
90 91 92 0
c gate 93 87 92 0
87 -93 0
92 -93 0
-87 -92 93 0
c gate 94 -87 -92 0
-87 -94 0
-92 -94 0
87 92 94 0
c gate 95 -93 -94 0
-93 -95 0
-94 -95 0
93 94 95 0
c gate 96 -44 -46 0
-44 -96 0
-46 -96 0
44 46 96 0
c gate 97 95 -96 0
95 -97 0
-96 -97 0
-95 96 97 0
c gate 98 -95 96 0
-95 -98 0
96 -98 0
95 -96 98 0
c gate 99 -97 -98 0
-97 -99 0
-98 -99 0
97 98 99 0
c gate 100 -86 99 0
-86 -100 0
99 -100 0
86 -99 100 0
c gate 101 86 -99 0
86 -101 0
-99 -101 0
-86 99 101 0
c gate 102 -100 -101 0
-100 -102 0
-101 -102 0
100 101 102 0
c gate 103 52 -77 0
52 -103 0
-77 -103 0
-52 77 103 0
c gate 104 -78 -103 0
-78 -104 0
-103 -104 0
78 103 104 0
c gate 105 102 104 0
102 -105 0
104 -105 0
-102 -104 105 0
c gate 106 -78 -105 0
-78 -106 0
-105 -106 0
78 105 106 0
c gate 107 -91 -93 0
-91 -107 0
-93 -107 0
91 93 107 0
c gate 108 3 19 0
3 -108 0
19 -108 0
-3 -19 108 0
c gate 109 4 18 0
4 -109 0
18 -109 0
-4 -18 109 0
c gate 110 5 17 0
5 -110 0
17 -110 0
-5 -17 110 0
c gate 111 -109 -110 0
-109 -111 0
-110 -111 0
109 110 111 0
c gate 112 109 110 0
109 -112 0
110 -112 0
-109 -110 112 0
c gate 113 -111 -112 0
-111 -113 0
-112 -113 0
111 112 113 0
c gate 114 108 113 0
108 -114 0
113 -114 0
-108 -113 114 0
c gate 115 -108 -113 0
-108 -115 0
-113 -115 0
108 113 115 0
c gate 116 -114 -115 0
-114 -116 0
-115 -116 0
114 115 116 0
c gate 117 -57 -59 0
-57 -117 0
-59 -117 0
57 59 117 0
c gate 118 116 -117 0
116 -118 0
-117 -118 0
-116 117 118 0
c gate 119 -116 117 0
-116 -119 0
117 -119 0
116 -117 119 0
c gate 120 -118 -119 0
-118 -120 0
-119 -120 0
118 119 120 0
c gate 121 -107 120 0
-107 -121 0
120 -121 0
107 -120 121 0
c gate 122 107 -120 0
107 -122 0
-120 -122 0
-107 120 122 0
c gate 123 -121 -122 0
-121 -123 0
-122 -123 0
121 122 123 0
c gate 124 -72 -75 0
-72 -124 0
-75 -124 0
72 75 124 0
c gate 125 6 16 0
6 -125 0
16 -125 0
-6 -16 125 0
c gate 126 7 15 0
7 -126 0
15 -126 0
-7 -15 126 0
c gate 127 8 14 0
8 -127 0
14 -127 0
-8 -14 127 0
c gate 128 -126 -127 0
-126 -128 0
-127 -128 0
126 127 128 0
c gate 129 126 127 0
126 -129 0
127 -129 0
-126 -127 129 0
c gate 130 -128 -129 0
-128 -130 0
-129 -130 0
128 129 130 0
c gate 131 125 130 0
125 -131 0
130 -131 0
-125 -130 131 0
c gate 132 -125 -130 0
-125 -132 0
-130 -132 0
125 130 132 0
c gate 133 -131 -132 0
-131 -133 0
-132 -133 0
131 132 133 0
c gate 134 -67 -69 0
-67 -134 0
-69 -134 0
67 69 134 0
c gate 135 10 12 0
10 -135 0
12 -135 0
-10 -12 135 0
c gate 136 9 13 0
9 -136 0
13 -136 0
-9 -13 136 0
c gate 137 -135 -136 0
-135 -137 0
-136 -137 0
135 136 137 0
c gate 138 10 13 0
10 -138 0
13 -138 0
-10 -13 138 0
c gate 139 64 138 0
64 -139 0
138 -139 0
-64 -138 139 0
c gate 140 -137 -139 0
-137 -140 0
-139 -140 0
137 139 140 0
c gate 141 -134 140 0
-134 -141 0
140 -141 0
134 -140 141 0
c gate 142 134 -140 0
134 -142 0
-140 -142 0
-134 140 142 0
c gate 143 -141 -142 0
-141 -143 0
-142 -143 0
141 142 143 0
c gate 144 133 143 0
133 -144 0
143 -144 0
-133 -143 144 0
c gate 145 -133 -143 0
-133 -145 0
-143 -145 0
133 143 145 0
c gate 146 -144 -145 0
-144 -146 0
-145 -146 0
144 145 146 0
c gate 147 -124 146 0
-124 -147 0
146 -147 0
124 -146 147 0
c gate 148 124 -146 0
124 -148 0
-146 -148 0
-124 146 148 0
c gate 149 -147 -148 0
-147 -149 0
-148 -149 0
147 148 149 0
c gate 150 123 149 0
123 -150 0
149 -150 0
-123 -149 150 0
c gate 151 -123 -149 0
-123 -151 0
-149 -151 0
123 149 151 0
c gate 152 -150 -151 0
-150 -152 0
-151 -152 0
150 151 152 0
c gate 153 -106 152 0
-106 -153 0
152 -153 0
106 -152 153 0
c gate 154 -97 -100 0
-97 -154 0
-100 -154 0
97 100 154 0
c gate 155 106 -152 0
106 -155 0
-152 -155 0
-106 152 155 0
c gate 156 -153 -155 0
-153 -156 0
-155 -156 0
153 155 156 0
c gate 157 -154 156 0
-154 -157 0
156 -157 0
154 -156 157 0
c gate 158 -153 -157 0
-153 -158 0
-157 -158 0
153 157 158 0
c gate 159 -118 -121 0
-118 -159 0
-121 -159 0
118 121 159 0
c gate 160 -147 -150 0
-147 -160 0
-150 -160 0
147 150 160 0
c gate 161 -112 -114 0
-112 -161 0
-114 -161 0
112 114 161 0
c gate 162 4 19 0
4 -162 0
19 -162 0
-4 -19 162 0
c gate 163 5 18 0
5 -163 0
18 -163 0
-5 -18 163 0
c gate 164 6 17 0
6 -164 0
17 -164 0
-6 -17 164 0
c gate 165 -163 -164 0
-163 -165 0
-164 -165 0
163 164 165 0
c gate 166 163 164 0
163 -166 0
164 -166 0
-163 -164 166 0
c gate 167 -165 -166 0
-165 -167 0
-166 -167 0
165 166 167 0
c gate 168 162 167 0
162 -168 0
167 -168 0
-162 -167 168 0
c gate 169 -162 -167 0
-162 -169 0
-167 -169 0
162 167 169 0
c gate 170 -168 -169 0
-168 -170 0
-169 -170 0
168 169 170 0
c gate 171 -129 -131 0
-129 -171 0
-131 -171 0
129 131 171 0
c gate 172 170 -171 0
170 -172 0
-171 -172 0
-170 171 172 0
c gate 173 -170 171 0
-170 -173 0
171 -173 0
170 -171 173 0
c gate 174 -172 -173 0
-172 -174 0
-173 -174 0
172 173 174 0
c gate 175 -161 174 0
-161 -175 0
174 -175 0
161 -174 175 0
c gate 176 161 -174 0
161 -176 0
-174 -176 0
-161 174 176 0
c gate 177 -175 -176 0
-175 -177 0
-176 -177 0
175 176 177 0
c gate 178 -141 -144 0
-141 -178 0
-144 -178 0
141 144 178 0
c gate 179 7 16 0
7 -179 0
16 -179 0
-7 -16 179 0
c gate 180 8 15 0
8 -180 0
15 -180 0
-8 -15 180 0
c gate 181 9 14 0
9 -181 0
14 -181 0
-9 -14 181 0
c gate 182 -180 -181 0
-180 -182 0
-181 -182 0
180 181 182 0
c gate 183 180 181 0
180 -183 0
181 -183 0
-180 -181 183 0
c gate 184 -182 -183 0
-182 -184 0
-183 -184 0
182 183 184 0
c gate 185 179 184 0
179 -185 0
184 -185 0
-179 -184 185 0
c gate 186 -179 -184 0
-179 -186 0
-184 -186 0
179 184 186 0
c gate 187 -185 -186 0
-185 -187 0
-186 -187 0
185 186 187 0
c gate 188 -64 138 0
-64 -188 0
138 -188 0
64 -138 188 0
c gate 189 187 188 0
187 -189 0
188 -189 0
-187 -188 189 0
c gate 190 -187 -188 0
-187 -190 0
-188 -190 0
187 188 190 0
c gate 191 -189 -190 0
-189 -191 0
-190 -191 0
189 190 191 0
c gate 192 -178 191 0
-178 -192 0
191 -192 0
178 -191 192 0
c gate 193 178 -191 0
178 -193 0
-191 -193 0
-178 191 193 0
c gate 194 -192 -193 0
-192 -194 0
-193 -194 0
192 193 194 0
c gate 195 177 194 0
177 -195 0
194 -195 0
-177 -194 195 0
c gate 196 -177 -194 0
-177 -196 0
-194 -196 0
177 194 196 0
c gate 197 -195 -196 0
-195 -197 0
-196 -197 0
195 196 197 0
c gate 198 -160 197 0
-160 -198 0
197 -198 0
160 -197 198 0
c gate 199 160 -197 0
160 -199 0
-197 -199 0
-160 197 199 0
c gate 200 -198 -199 0
-198 -200 0
-199 -200 0
198 199 200 0
c gate 201 -159 200 0
-159 -201 0
200 -201 0
159 -200 201 0
c gate 202 159 -200 0
159 -202 0
-200 -202 0
-159 200 202 0
c gate 203 -201 -202 0
-201 -203 0
-202 -203 0
201 202 203 0
c gate 204 -158 203 0
-158 -204 0
203 -204 0
158 -203 204 0
c gate 205 158 -203 0
158 -205 0
-203 -205 0
-158 203 205 0
c gate 206 -204 -205 0
-204 -206 0
-205 -206 0
204 205 206 0
c gate 207 21 206 0
21 -207 0
206 -207 0
-21 -206 207 0
c gate 208 -21 -206 0
-21 -208 0
-206 -208 0
21 206 208 0
c gate 209 -207 -208 0
-207 -209 0
-208 -209 0
207 208 209 0
c gate 210 -25 -27 0
-25 -210 0
-27 -210 0
25 27 210 0
c gate 211 -28 -210 0
-28 -211 0
-210 -211 0
28 210 211 0
c gate 212 6 12 0
6 -212 0
12 -212 0
-6 -12 212 0
c gate 213 7 11 0
7 -213 0
11 -213 0
-7 -11 213 0
c gate 214 -212 -213 0
-212 -214 0
-213 -214 0
212 213 214 0
c gate 215 212 213 0
212 -215 0
213 -215 0
-212 -213 215 0
c gate 216 -214 -215 0
-214 -216 0
-215 -216 0
214 215 216 0
c gate 217 5 13 0
5 -217 0
13 -217 0
-5 -13 217 0
c gate 218 216 -217 0
216 -218 0
-217 -218 0
-216 217 218 0
c gate 219 -214 -218 0
-214 -219 0
-218 -219 0
214 218 219 0
c gate 220 211 219 0
211 -220 0
219 -220 0
-211 -219 220 0
c gate 221 3 16 0
3 -221 0
16 -221 0
-3 -16 221 0
c gate 222 4 15 0
4 -222 0
15 -222 0
-4 -15 222 0
c gate 223 5 14 0
5 -223 0
14 -223 0
-5 -14 223 0
c gate 224 -222 -223 0
-222 -224 0
-223 -224 0
222 223 224 0
c gate 225 222 223 0
222 -225 0
223 -225 0
-222 -223 225 0
c gate 226 -224 -225 0
-224 -226 0
-225 -226 0
224 225 226 0
c gate 227 -221 -226 0
-221 -227 0
-226 -227 0
221 226 227 0
c gate 228 221 226 0
221 -228 0
226 -228 0
-221 -226 228 0
c gate 229 -227 -228 0
-227 -229 0
-228 -229 0
227 228 229 0
c gate 230 -211 -219 0
-211 -230 0
-219 -230 0
211 219 230 0
c gate 231 -220 -230 0
-220 -231 0
-230 -231 0
220 230 231 0
c gate 232 229 231 0
229 -232 0
231 -232 0
-229 -231 232 0
c gate 233 -220 -232 0
-220 -233 0
-232 -233 0
220 232 233 0
c gate 234 -48 -50 0
-48 -234 0
-50 -234 0
48 50 234 0
c gate 235 -51 -234 0
-51 -235 0
-234 -235 0
51 234 235 0
c gate 236 -233 235 0
-233 -236 0
235 -236 0
233 -235 236 0
c gate 237 1 18 0
1 -237 0
18 -237 0
-1 -18 237 0
c gate 238 2 17 0
2 -238 0
17 -238 0
-2 -17 238 0
c gate 239 237 238 0
237 -239 0
238 -239 0
-237 -238 239 0
c gate 240 -82 -84 0
-82 -240 0
-84 -240 0
82 84 240 0
c gate 241 -85 -240 0
-85 -241 0
-240 -241 0
85 240 241 0
c gate 242 -225 -228 0
-225 -242 0
-228 -242 0
225 228 242 0
c gate 243 241 -242 0
241 -243 0
-242 -243 0
-241 242 243 0
c gate 244 -241 242 0
-241 -244 0
242 -244 0
241 -242 244 0
c gate 245 -243 -244 0
-243 -245 0
-244 -245 0
243 244 245 0
c gate 246 -239 -245 0
-239 -246 0
-245 -246 0
239 245 246 0
c gate 247 239 245 0
239 -247 0
245 -247 0
-239 -245 247 0
c gate 248 -246 -247 0
-246 -248 0
-247 -248 0
246 247 248 0
c gate 249 233 -235 0
233 -249 0
-235 -249 0
-233 235 249 0
c gate 250 -236 -249 0
-236 -250 0
-249 -250 0
236 249 250 0
c gate 251 248 250 0
248 -251 0
250 -251 0
-248 -250 251 0
c gate 252 -236 -251 0
-236 -252 0
-251 -252 0
236 251 252 0
c gate 253 -102 -104 0
-102 -253 0
-104 -253 0
102 104 253 0
c gate 254 -105 -253 0
-105 -254 0
-253 -254 0
105 253 254 0
c gate 255 -252 254 0
-252 -255 0
254 -255 0
252 -254 255 0
c gate 256 -243 -247 0
-243 -256 0
-247 -256 0
243 247 256 0
c gate 257 252 -254 0
252 -257 0
-254 -257 0
-252 254 257 0
c gate 258 -255 -257 0
-255 -258 0
-257 -258 0
255 257 258 0
c gate 259 -256 258 0
-256 -259 0
258 -259 0
256 -258 259 0
c gate 260 -255 -259 0
-255 -260 0
-259 -260 0
255 259 260 0
c gate 261 154 -156 0
154 -261 0
-156 -261 0
-154 156 261 0
c gate 262 -157 -261 0
-157 -262 0
-261 -262 0
157 261 262 0
c gate 263 -260 262 0
-260 -263 0
262 -263 0
260 -262 263 0
c gate 264 2 20 0
2 -264 0
20 -264 0
-2 -20 264 0
c gate 265 260 -262 0
260 -265 0
-262 -265 0
-260 262 265 0
c gate 266 -263 -265 0
-263 -266 0
-265 -266 0
263 265 266 0
c gate 267 264 266 0
264 -267 0
266 -267 0
-264 -266 267 0
c gate 268 -263 -267 0
-263 -268 0
-267 -268 0
263 267 268 0
c gate 269 209 -268 0
209 -269 0
-268 -269 0
-209 268 269 0
c gate 270 -209 -263 0
-209 -270 0
-263 -270 0
209 263 270 0
c gate 271 -229 -231 0
-229 -271 0
-231 -271 0
229 231 271 0
c gate 272 -232 -271 0
-232 -272 0
-271 -272 0
232 271 272 0
c gate 273 5 12 0
5 -273 0
12 -273 0
-5 -12 273 0
c gate 274 6 11 0
6 -274 0
11 -274 0
-6 -11 274 0
c gate 275 273 274 0
273 -275 0
274 -275 0
-273 -274 275 0
c gate 276 4 13 0
4 -276 0
13 -276 0
-4 -13 276 0
c gate 277 -273 -274 0
-273 -277 0
-274 -277 0
273 274 277 0
c gate 278 -275 -277 0
-275 -278 0
-277 -278 0
275 277 278 0
c gate 279 276 278 0
276 -279 0
278 -279 0
-276 -278 279 0
c gate 280 -275 -279 0
-275 -280 0
-279 -280 0
275 279 280 0
c gate 281 -216 217 0
-216 -281 0
217 -281 0
216 -217 281 0
c gate 282 -218 -281 0
-218 -282 0
-281 -282 0
218 281 282 0
c gate 283 280 282 0
280 -283 0
282 -283 0
-280 -282 283 0
c gate 284 -280 -282 0
-280 -284 0
-282 -284 0
280 282 284 0
c gate 285 -283 -284 0
-283 -285 0
-284 -285 0
283 284 285 0
c gate 286 2 16 0
2 -286 0
16 -286 0
-2 -16 286 0
c gate 287 3 15 0
3 -287 0
15 -287 0
-3 -15 287 0
c gate 288 4 14 0
4 -288 0
14 -288 0
-4 -14 288 0
c gate 289 -287 -288 0
-287 -289 0
-288 -289 0
287 288 289 0
c gate 290 287 288 0
287 -290 0
288 -290 0
-287 -288 290 0
c gate 291 -289 -290 0
-289 -291 0
-290 -291 0
289 290 291 0
c gate 292 286 291 0
286 -292 0
291 -292 0
-286 -291 292 0
c gate 293 -286 -291 0
-286 -293 0
-291 -293 0
286 291 293 0
c gate 294 -292 -293 0
-292 -294 0
-293 -294 0
292 293 294 0
c gate 295 285 -294 0
285 -295 0
-294 -295 0
-285 294 295 0
c gate 296 -283 -295 0
-283 -296 0
-295 -296 0
283 295 296 0
c gate 297 272 296 0
272 -297 0
296 -297 0
-272 -296 297 0
c gate 298 -237 -238 0
-237 -298 0
-238 -298 0
237 238 298 0
c gate 299 -239 -298 0
-239 -299 0
-298 -299 0
239 298 299 0
c gate 300 -290 -292 0
-290 -300 0
-292 -300 0
290 292 300 0
c gate 301 -299 300 0
-299 -301 0
300 -301 0
299 -300 301 0
c gate 302 299 -300 0
299 -302 0
-300 -302 0
-299 300 302 0
c gate 303 -301 -302 0
-301 -303 0
-302 -303 0
301 302 303 0
c gate 304 -272 -296 0
-272 -304 0
-296 -304 0
272 296 304 0
c gate 305 -297 -304 0
-297 -305 0
-304 -305 0
297 304 305 0
c gate 306 303 305 0
303 -306 0
305 -306 0
-303 -305 306 0
c gate 307 -297 -306 0
-297 -307 0
-306 -307 0
297 306 307 0
c gate 308 -248 -250 0
-248 -308 0
-250 -308 0
248 250 308 0
c gate 309 -251 -308 0
-251 -309 0
-308 -309 0
251 308 309 0
c gate 310 -307 309 0
-307 -310 0
309 -310 0
307 -309 310 0
c gate 311 307 -309 0
307 -311 0
-309 -311 0
-307 309 311 0
c gate 312 -310 -311 0
-310 -312 0
-311 -312 0
310 311 312 0
c gate 313 302 312 0
302 -313 0
312 -313 0
-302 -312 313 0
c gate 314 -310 -313 0
-310 -314 0
-313 -314 0
310 313 314 0
c gate 315 256 -258 0
256 -315 0
-258 -315 0
-256 258 315 0
c gate 316 -259 -315 0
-259 -316 0
-315 -316 0
259 315 316 0
c gate 317 -314 316 0
-314 -317 0
316 -317 0
314 -316 317 0
c gate 318 1 20 0
1 -318 0
20 -318 0
-1 -20 318 0
c gate 319 314 -316 0
314 -319 0
-316 -319 0
-314 316 319 0
c gate 320 -317 -319 0
-317 -320 0
-319 -320 0
317 319 320 0
c gate 321 318 320 0
318 -321 0
320 -321 0
-318 -320 321 0
c gate 322 -317 -321 0
-317 -322 0
-321 -322 0
317 321 322 0
c gate 323 -264 -266 0
-264 -323 0
-266 -323 0
264 266 323 0
c gate 324 -267 -323 0
-267 -324 0
-323 -324 0
267 323 324 0
c gate 325 -322 324 0
-322 -325 0
324 -325 0
322 -324 325 0
c gate 326 -270 325 0
-270 -326 0
325 -326 0
270 -325 326 0
c gate 327 -269 -326 0
-269 -327 0
-326 -327 0
269 326 327 0
c gate 328 7 19 0
7 -328 0
19 -328 0
-7 -19 328 0
c gate 329 8 18 0
8 -329 0
18 -329 0
-8 -18 329 0
c gate 330 9 17 0
9 -330 0
17 -330 0
-9 -17 330 0
c gate 331 -329 -330 0
-329 -331 0
-330 -331 0
329 330 331 0
c gate 332 329 330 0
329 -332 0
330 -332 0
-329 -330 332 0
c gate 333 -331 -332 0
-331 -333 0
-332 -333 0
331 332 333 0
c gate 334 328 333 0
328 -334 0
333 -334 0
-328 -333 334 0
c gate 335 -328 -333 0
-328 -335 0
-333 -335 0
328 333 335 0
c gate 336 -334 -335 0
-334 -336 0
-335 -336 0
334 335 336 0
c gate 337 10 15 0
10 -337 0
15 -337 0
-10 -15 337 0
c gate 338 9 16 0
9 -338 0
16 -338 0
-9 -16 338 0
c gate 339 337 338 0
337 -339 0
338 -339 0
-337 -338 339 0
c gate 340 336 339 0
336 -340 0
339 -340 0
-336 -339 340 0
c gate 341 10 16 0
10 -341 0
16 -341 0
-10 -16 341 0
c gate 342 8 17 0
8 -342 0
17 -342 0
-8 -17 342 0
c gate 343 7 18 0
7 -343 0
18 -343 0
-7 -18 343 0
c gate 344 342 343 0
342 -344 0
343 -344 0
-342 -343 344 0
c gate 345 6 19 0
6 -345 0
19 -345 0
-6 -19 345 0
c gate 346 -342 -343 0
-342 -346 0
-343 -346 0
342 343 346 0
c gate 347 -344 -346 0
-344 -347 0
-346 -347 0
344 346 347 0
c gate 348 345 347 0
345 -348 0
347 -348 0
-345 -347 348 0
c gate 349 -344 -348 0
-344 -349 0
-348 -349 0
344 348 349 0
c gate 350 -336 -339 0
-336 -350 0
-339 -350 0
336 339 350 0
c gate 351 -340 -350 0
-340 -351 0
-350 -351 0
340 350 351 0
c gate 352 349 -351 0
349 -352 0
-351 -352 0
-349 351 352 0
c gate 353 -349 351 0
-349 -353 0
351 -353 0
349 -351 353 0
c gate 354 -352 -353 0
-352 -354 0
-353 -354 0
352 353 354 0
c gate 355 341 354 0
341 -355 0
354 -355 0
-341 -354 355 0
c gate 356 -340 355 0
-340 -356 0
355 -356 0
340 -355 356 0
c gate 357 -350 -354 0
-350 -357 0
-354 -357 0
350 354 357 0
c gate 358 -356 -357 0
-356 -358 0
-357 -358 0
356 357 358 0
c gate 359 -139 -189 0
-139 -359 0
-189 -359 0
139 189 359 0
c gate 360 8 16 0
8 -360 0
16 -360 0
-8 -16 360 0
c gate 361 9 15 0
9 -361 0
15 -361 0
-9 -15 361 0
c gate 362 10 14 0
10 -362 0
14 -362 0
-10 -14 362 0
c gate 363 -361 -362 0
-361 -363 0
-362 -363 0
361 362 363 0
c gate 364 361 362 0
361 -364 0
362 -364 0
-361 -362 364 0
c gate 365 -363 -364 0
-363 -365 0
-364 -365 0
363 364 365 0
c gate 366 360 365 0
360 -366 0
365 -366 0
-360 -365 366 0
c gate 367 -360 -365 0
-360 -367 0
-365 -367 0
360 365 367 0
c gate 368 -366 -367 0
-366 -368 0
-367 -368 0
366 367 368 0
c gate 369 -359 368 0
-359 -369 0
368 -369 0
359 -368 369 0
c gate 370 -166 -168 0
-166 -370 0
-168 -370 0
166 168 370 0
c gate 371 5 19 0
5 -371 0
19 -371 0
-5 -19 371 0
c gate 372 7 17 0
7 -372 0
17 -372 0
-7 -17 372 0
c gate 373 6 18 0
6 -373 0
18 -373 0
-6 -18 373 0
c gate 374 -372 -373 0
-372 -374 0
-373 -374 0
372 373 374 0
c gate 375 372 373 0
372 -375 0
373 -375 0
-372 -373 375 0
c gate 376 -374 -375 0
-374 -376 0
-375 -376 0
374 375 376 0
c gate 377 371 376 0
371 -377 0
376 -377 0
-371 -376 377 0
c gate 378 -371 -376 0
-371 -378 0
-376 -378 0
371 376 378 0
c gate 379 -377 -378 0
-377 -379 0
-378 -379 0
377 378 379 0
c gate 380 -183 -185 0
-183 -380 0
-185 -380 0
183 185 380 0
c gate 381 379 -380 0
379 -381 0
-380 -381 0
-379 380 381 0
c gate 382 -379 380 0
-379 -382 0
380 -382 0
379 -380 382 0
c gate 383 -381 -382 0
-381 -383 0
-382 -383 0
381 382 383 0
c gate 384 -370 383 0
-370 -384 0
383 -384 0
370 -383 384 0
c gate 385 370 -383 0
370 -385 0
-383 -385 0
-370 383 385 0
c gate 386 -384 -385 0
-384 -386 0
-385 -386 0
384 385 386 0
c gate 387 359 -368 0
359 -387 0
-368 -387 0
-359 368 387 0
c gate 388 -369 -387 0
-369 -388 0
-387 -388 0
369 387 388 0
c gate 389 386 388 0
386 -389 0
388 -389 0
-386 -388 389 0
c gate 390 -369 -389 0
-369 -390 0
-389 -390 0
369 389 390 0
c gate 391 -375 -377 0
-375 -391 0
-377 -391 0
375 377 391 0
c gate 392 -345 -347 0
-345 -392 0
-347 -392 0
345 347 392 0
c gate 393 -348 -392 0
-348 -393 0
-392 -393 0
348 392 393 0
c gate 394 -364 -366 0
-364 -394 0
-366 -394 0
364 366 394 0
c gate 395 393 -394 0
393 -395 0
-394 -395 0
-393 394 395 0
c gate 396 -393 394 0
-393 -396 0
394 -396 0
393 -394 396 0
c gate 397 -395 -396 0
-395 -397 0
-396 -397 0
395 396 397 0
c gate 398 391 -397 0
391 -398 0
-397 -398 0
-391 397 398 0
c gate 399 -391 397 0
-391 -399 0
397 -399 0
391 -397 399 0
c gate 400 -398 -399 0
-398 -400 0
-399 -400 0
398 399 400 0
c gate 401 -337 -338 0
-337 -401 0
-338 -401 0
337 338 401 0
c gate 402 -339 -401 0
-339 -402 0
-401 -402 0
339 401 402 0
c gate 403 400 402 0
400 -403 0
402 -403 0
-400 -402 403 0
c gate 404 -400 -402 0
-400 -404 0
-402 -404 0
400 402 404 0
c gate 405 -403 -404 0
-403 -405 0
-404 -405 0
403 404 405 0
c gate 406 -390 405 0
-390 -406 0
405 -406 0
390 -405 406 0
c gate 407 -381 -384 0
-381 -407 0
-384 -407 0
381 384 407 0
c gate 408 390 -405 0
390 -408 0
-405 -408 0
-390 405 408 0
c gate 409 -406 -408 0
-406 -409 0
-408 -409 0
406 408 409 0
c gate 410 -407 409 0
-407 -410 0
409 -410 0
407 -409 410 0
c gate 411 -406 -410 0
-406 -411 0
-410 -411 0
406 410 411 0
c gate 412 -395 -399 0
-395 -412 0
-399 -412 0
395 399 412 0
c gate 413 -341 -354 0
-341 -413 0
-354 -413 0
341 354 413 0
c gate 414 -355 -413 0
-355 -414 0
-413 -414 0
355 413 414 0
c gate 415 403 414 0
403 -415 0
414 -415 0
-403 -414 415 0
c gate 416 -403 -414 0
-403 -416 0
-414 -416 0
403 414 416 0
c gate 417 -415 -416 0
-415 -417 0
-416 -417 0
415 416 417 0
c gate 418 -412 417 0
-412 -418 0
417 -418 0
412 -417 418 0
c gate 419 412 -417 0
412 -419 0
-417 -419 0
-412 417 419 0
c gate 420 -418 -419 0
-418 -420 0
-419 -420 0
418 419 420 0
c gate 421 -411 420 0
-411 -421 0
420 -421 0
411 -420 421 0
c gate 422 6 20 0
6 -422 0
20 -422 0
-6 -20 422 0
c gate 423 411 -420 0
411 -423 0
-420 -423 0
-411 420 423 0
c gate 424 -421 -423 0
-421 -424 0
-423 -424 0
421 423 424 0
c gate 425 422 424 0
422 -425 0
424 -425 0
-422 -424 425 0
c gate 426 -421 -425 0
-421 -426 0
-425 -426 0
421 425 426 0
c gate 427 358 -426 0
358 -427 0
-426 -427 0
-358 426 427 0
c gate 428 -358 426 0
-358 -428 0
426 -428 0
358 -426 428 0
c gate 429 -427 -428 0
-427 -429 0
-428 -429 0
427 428 429 0
c gate 430 -415 -418 0
-415 -430 0
-418 -430 0
415 418 430 0
c gate 431 -332 -334 0
-332 -431 0
-334 -431 0
332 334 431 0
c gate 432 8 19 0
8 -432 0
19 -432 0
-8 -19 432 0
c gate 433 9 18 0
9 -433 0
18 -433 0
-9 -18 433 0
c gate 434 10 17 0
10 -434 0
17 -434 0
-10 -17 434 0
c gate 435 433 -434 0
433 -435 0
-434 -435 0
-433 434 435 0
c gate 436 -433 434 0
-433 -436 0
434 -436 0
433 -434 436 0
c gate 437 -435 -436 0
-435 -437 0
-436 -437 0
435 436 437 0
c gate 438 432 437 0
432 -438 0
437 -438 0
-432 -437 438 0
c gate 439 -432 -437 0
-432 -439 0
-437 -439 0
432 437 439 0
c gate 440 -438 -439 0
-438 -440 0
-439 -440 0
438 439 440 0
c gate 441 -431 -440 0
-431 -441 0
-440 -441 0
431 440 441 0
c gate 442 431 440 0
431 -442 0
440 -442 0
-431 -440 442 0
c gate 443 -441 -442 0
-441 -443 0
-442 -443 0
441 442 443 0
c gate 444 430 -443 0
430 -444 0
-443 -444 0
-430 443 444 0
c gate 445 -430 443 0
-430 -445 0
443 -445 0
430 -443 445 0
c gate 446 -444 -445 0
-444 -446 0
-445 -446 0
444 445 446 0
c gate 447 7 20 0
7 -447 0
20 -447 0
-7 -20 447 0
c gate 448 446 447 0
446 -448 0
447 -448 0
-446 -447 448 0
c gate 449 -446 -447 0
-446 -449 0
-447 -449 0
446 447 449 0
c gate 450 -448 -449 0
-448 -450 0
-449 -450 0
448 449 450 0
c gate 451 -429 450 0
-429 -451 0
450 -451 0
429 -450 451 0
c gate 452 -192 -195 0
-192 -452 0
-195 -452 0
192 195 452 0
c gate 453 -386 -388 0
-386 -453 0
-388 -453 0
386 388 453 0
c gate 454 -389 -453 0
-389 -454 0
-453 -454 0
389 453 454 0
c gate 455 -452 454 0
-452 -455 0
454 -455 0
452 -454 455 0
c gate 456 -172 -175 0
-172 -456 0
-175 -456 0
172 175 456 0
c gate 457 452 -454 0
452 -457 0
-454 -457 0
-452 454 457 0
c gate 458 -455 -457 0
-455 -458 0
-457 -458 0
455 457 458 0
c gate 459 -456 458 0
-456 -459 0
458 -459 0
456 -458 459 0
c gate 460 -455 -459 0
-455 -460 0
-459 -460 0
455 459 460 0
c gate 461 407 -409 0
407 -461 0
-409 -461 0
-407 409 461 0
c gate 462 -410 -461 0
-410 -462 0
-461 -462 0
410 461 462 0
c gate 463 -460 462 0
-460 -463 0
462 -463 0
460 -462 463 0
c gate 464 5 20 0
5 -464 0
20 -464 0
-5 -20 464 0
c gate 465 460 -462 0
460 -465 0
-462 -465 0
-460 462 465 0
c gate 466 -463 -465 0
-463 -466 0
-465 -466 0
463 465 466 0
c gate 467 464 466 0
464 -467 0
466 -467 0
-464 -466 467 0
c gate 468 -463 -467 0
-463 -468 0
-467 -468 0
463 467 468 0
c gate 469 -422 -424 0
-422 -469 0
-424 -469 0
422 424 469 0
c gate 470 -425 -469 0
-425 -470 0
-469 -470 0
425 469 470 0
c gate 471 468 -470 0
468 -471 0
-470 -471 0
-468 470 471 0
c gate 472 -451 -471 0
-451 -472 0
-471 -472 0
451 471 472 0
c gate 473 -198 -201 0
-198 -473 0
-201 -473 0
198 201 473 0
c gate 474 456 -458 0
456 -474 0
-458 -474 0
-456 458 474 0
c gate 475 -459 -474 0
-459 -475 0
-474 -475 0
459 474 475 0
c gate 476 -473 475 0
-473 -476 0
475 -476 0
473 -475 476 0
c gate 477 4 20 0
4 -477 0
20 -477 0
-4 -20 477 0
c gate 478 473 -475 0
473 -478 0
-475 -478 0
-473 475 478 0
c gate 479 -476 -478 0
-476 -479 0
-478 -479 0
476 478 479 0
c gate 480 477 479 0
477 -480 0
479 -480 0
-477 -479 480 0
c gate 481 -476 -480 0
-476 -481 0
-480 -481 0
476 480 481 0
c gate 482 -464 -466 0
-464 -482 0
-466 -482 0
464 466 482 0
c gate 483 -467 -482 0
-467 -483 0
-482 -483 0
467 482 483 0
c gate 484 481 -483 0
481 -484 0
-483 -484 0
-481 483 484 0
c gate 485 -481 483 0
-481 -485 0
483 -485 0
481 -483 485 0
c gate 486 -484 -485 0
-484 -486 0
-485 -486 0
484 485 486 0
c gate 487 472 486 0
472 -487 0
486 -487 0
-472 -486 487 0
c gate 488 -204 -207 0
-204 -488 0
-207 -488 0
204 207 488 0
c gate 489 -477 -479 0
-477 -489 0
-479 -489 0
477 479 489 0
c gate 490 -480 -489 0
-480 -490 0
-489 -490 0
480 489 490 0
c gate 491 -488 -490 0
-488 -491 0
-490 -491 0
488 490 491 0
c gate 492 488 490 0
488 -492 0
490 -492 0
-488 -490 492 0
c gate 493 -491 -492 0
-491 -493 0
-492 -493 0
491 492 493 0
c gate 494 429 -450 0
429 -494 0
-450 -494 0
-429 450 494 0
c gate 495 -468 470 0
-468 -495 0
470 -495 0
468 -470 495 0
c gate 496 -494 -495 0
-494 -496 0
-495 -496 0
494 495 496 0
c gate 497 -493 496 0
-493 -497 0
496 -497 0
493 -496 497 0
c gate 498 487 497 0
487 -498 0
497 -498 0
-487 -497 498 0
c gate 499 -327 498 0
-327 -499 0
498 -499 0
327 -498 499 0
c PO
499 0
